c b=6,c=1537
p cnf 23 113
6 -12 0
1 3 5 6 -21 0
2 4 6 -22 0
-6 12 0
1 3 5 -6 21 0
1 3 5 -6 22 0
5 -11 0
2 4 5 -20 0
1 3 5 -23 0
2 4 -5 6 21 0
6 -23 0
2 4 -5 -6 -21 0
-5 -6 23 0
-5 11 0
2 4 -5 20 0
2 4 -5 -22 0
4 -10 0
1 3 4 -19 0
1 3 -4 6 -21 0
1 3 5 6 -22 0
1 3 -4 -6 21 0
1 3 -4 5 20 0
-4 -5 6 22 0
1 3 -5 -6 -22 0
1 3 -4 -5 -20 0
-4 10 0
1 3 -4 19 0
3 -9 0
2 3 -18 0
2 4 5 6 -21 0
2 4 5 -6 21 0
4 5 -6 22 0
2 -3 5 -20 0
4 5 -23 0
2 -3 -5 20 0
2 -3 4 19 0
-3 -4 5 6 21 0
-3 -4 5 -6 -21 0
-3 -4 -6 23 0
-3 -4 5 -22 0
2 -4 -5 6 -21 0
2 -4 -5 -6 21 0
-3 -4 -6 -22 0
2 -3 -4 -19 0
-3 9 0
2 -3 18 0
2 -8 0
1 2 -17 0
3 4 6 -22 0
1 3 4 5 -20 0
3 4 -5 6 21 0
3 4 -5 -6 -21 0
1 3 4 -5 20 0
3 4 -5 -22 0
1 -2 4 -19 0
1 -2 5 6 -22 0
1 -2 -5 -6 -22 0
1 -2 -4 19 0
1 -2 3 18 0
-2 -3 4 6 -21 0
-2 -3 4 -6 21 0
-2 -3 4 5 20 0
-2 -3 -5 6 22 0
-2 -3 4 -5 -20 0
1 -3 -4 5 -20 0
-2 -3 -5 6 -21 0
-2 -3 -5 -6 21 0
1 -3 -4 -5 20 0
1 -2 -3 -18 0
-2 8 0
1 -2 17 0
1 -7 0
1 -16 0
2 3 5 6 -21 0
2 3 5 -6 21 0
2 3 5 -6 22 0
2 3 5 -23 0
2 3 4 -19 0
2 3 -4 6 -21 0
2 3 5 6 -22 0
2 3 -4 -6 21 0
2 3 -4 5 20 0
2 3 -5 -6 -22 0
2 3 -4 -5 -20 0
2 3 -4 19 0
-1 3 -18 0
-1 4 5 6 -21 0
-1 4 5 -6 21 0
-1 -4 -5 6 -21 0
-1 -4 -5 -6 21 0
-1 -3 18 0
-1 2 17 0
-1 -2 3 5 -20 0
-1 -2 3 -5 20 0
-1 -2 3 4 19 0
-1 -2 -4 5 6 21 0
-1 -2 -4 5 -6 -21 0
-1 -2 -4 -6 23 0
-1 -2 -4 5 -22 0
-1 -2 -4 -6 -22 0
-1 -2 3 -4 -19 0
-2 -3 5 6 -22 0
-2 -3 -5 -6 -22 0
-2 -3 4 -19 0
-1 -2 -4 5 -20 0
-1 -2 -4 -5 20 0
-2 -3 -4 19 0
-1 -2 -17 0
-1 7 0
-1 16 0
-13 0
-14 0
-15 0
